
Gurobi 7.5.2 (linux64) logging started Sat Jul  7 16:00:07 2018

Changed value of parameter LogFile to result/ilp/simNo_10-n_100-m_40-s_4-minVAF_0.05-cov_10000-k_2-fn_0.05-fp_0.0001-na_0.15.ILP.gurobiSolverLog
   Prev: gurobi.log  Default: 
Changed value of parameter TimeLimit to 86400.0
   Prev: 1e+100  Min: 0.0  Max: 1e+100  Default: 1e+100
Optimize a model with 639293 rows, 10765 columns and 1940420 nonzeros
Variable types: 0 continuous, 10765 integer (10765 binary)
Coefficient statistics:
  Matrix range     [2e-05, 4e+00]
  Objective range  [1e-01, 9e+00]
  Bounds range     [1e+00, 1e+00]
  RHS range        [3e-01, 2e+00]
Presolve removed 124285 rows and 922 columns (presolve time = 5s) ...
Presolve removed 124762 rows and 922 columns (presolve time = 10s) ...
Presolve removed 172462 rows and 1399 columns (presolve time = 15s) ...
Presolve removed 172462 rows and 1399 columns
Presolve time: 15.09s
Presolved: 466831 rows, 9366 columns, 1404918 nonzeros
Variable types: 0 continuous, 9366 integer (9366 binary)
Found heuristic solution: objective -10653.89919
Presolved: 9366 rows, 476197 columns, 1414284 nonzeros

Presolve removed 9366 rows and 476197 columns

Root simplex log...

Iteration    Objective       Primal Inf.    Dual Inf.      Time
       0    5.3269785e+00   0.000000e+00   9.016500e+04     21s
   23211   -2.2481318e+02   0.000000e+00   1.316500e+03     25s
   23308   -2.2455209e+02   0.000000e+00   0.000000e+00     26s
   23308   -2.2455209e+02   0.000000e+00   0.000000e+00     26s

Root relaxation: objective -2.245521e+02, 23308 iterations, 7.29 seconds
Total elapsed time = 56.72s
Total elapsed time = 86.35s
Total elapsed time = 98.77s

    Nodes    |    Current Node    |     Objective Bounds      |     Work
 Expl Unexpl |  Obj  Depth IntInf | Incumbent    BestBd   Gap | It/Node Time

     0     0 -224.55209    0  901 -10653.899 -224.55209  97.9%     -  102s
H    0     0                    -506.3010942 -224.55209  55.6%     -  106s
H    0     0                    -257.8687700 -224.55209  12.9%     -  107s
H    0     0                    -254.7415918 -224.55209  11.9%     -  107s
     0     0 -231.48249    0  737 -254.74159 -231.48249  9.13%     -  297s
     0     0 -231.87339    0  736 -254.74159 -231.87339  8.98%     -  431s
     0     0 -233.96555    0  548 -254.74159 -233.96555  8.16%     -  550s
     0     0 -235.14081    0  936 -254.74159 -235.14081  7.69%     -  852s
     0     0 -235.16655    0  923 -254.74159 -235.16655  7.68%     -  868s
     0     0 -235.36545    0  923 -254.74159 -235.36545  7.61%     -  914s
     0     0 -235.41374    0  923 -254.74159 -235.41374  7.59%     -  925s
     0     0 -236.71266    0  910 -254.74159 -236.71266  7.08%     - 1465s
     0     0 -236.72130    0  913 -254.74159 -236.72130  7.07%     - 1488s
     0     0 -236.72130    0  914 -254.74159 -236.72130  7.07%     - 1492s
     0     0 -237.63628    0  767 -254.74159 -237.63628  6.71%     - 2084s
     0     0 -237.76607    0  881 -254.74159 -237.76607  6.66%     - 2792s
     0     0 -237.77272    0  923 -254.74159 -237.77272  6.66%     - 2822s
     0     0 -238.41363    0  796 -254.74159 -238.41363  6.41%     - 3209s
H    0     0                    -251.6144137 -238.41363  5.25%     - 3214s
     0     0 -238.84920    0  861 -251.61441 -238.84920  5.07%     - 3411s
     0     0 -238.85986    0  876 -251.61441 -238.85986  5.07%     - 3422s
     0     0 -239.76220    0  834 -251.61441 -239.76220  4.71%     - 4968s
     0     0 -239.96292    0  833 -251.61441 -239.96292  4.63%     - 5054s
     0     0 -240.00746    0  827 -251.61441 -240.00746  4.61%     - 5112s
     0     0 -240.05484    0  820 -251.61441 -240.05484  4.59%     - 5151s
     0     0 -240.05484    0  837 -251.61441 -240.05484  4.59%     - 5159s
     0     0 -240.05484    0  834 -251.61441 -240.05484  4.59%     - 5171s
     0     0 -240.33912    0  817 -251.61441 -240.33912  4.48%     - 5412s
     0     0 -240.48509    0  870 -251.61441 -240.48509  4.42%     - 5625s
     0     0 -240.48509    0  888 -251.61441 -240.48509  4.42%     - 5631s
     0     0 -240.57968    0  850 -251.61441 -240.57968  4.39%     - 5702s
     0     0 -240.80802    0  837 -251.61441 -240.80802  4.29%     - 6118s
     0     0 -240.84998    0  836 -251.61441 -240.84998  4.28%     - 6181s
     0     0 -240.85825    0  837 -251.61441 -240.85825  4.27%     - 6205s
     0     0 -240.87486    0  832 -251.61441 -240.87486  4.27%     - 6229s
     0     0 -240.87486    0  840 -251.61441 -240.87486  4.27%     - 6233s
     0     0 -241.91831    0  851 -251.61441 -241.91831  3.85%     - 7781s
     0     0 -242.37357    0  830 -251.61441 -242.37357  3.67%     - 8171s
     0     0 -242.37357    0  822 -251.61441 -242.37357  3.67%     - 8178s
     0     0 -242.42391    0  802 -251.61441 -242.42391  3.65%     - 8193s
     0     0 -242.56217    0  811 -251.61441 -242.56217  3.60%     - 8357s
     0     0 -242.56217    0  818 -251.61441 -242.56217  3.60%     - 8362s
     0     0 -243.60821    0  782 -251.61441 -243.60821  3.18%     - 10673s
     0     0 -243.60821    0  651 -251.61441 -243.60821  3.18%     - 10774s
     0     0 -243.60829    0 1029 -251.61441 -243.60829  3.18%     - 10778s
     0     0 -245.15247    0  867 -251.61441 -245.15247  2.57%     - 10783s
     0     0 -245.30157    0  617 -251.61441 -245.30157  2.51%     - 10785s
     0     0 -245.30157    0  618 -251.61441 -245.30157  2.51%     - 10786s
     0     0 -247.26728    0  726 -251.61441 -247.26728  1.73%     - 10796s
     0     0 -247.26728    0  425 -251.61441 -247.26728  1.73%     - 10803s
     0     0 -247.26728    0  716 -251.61441 -247.26728  1.73%     - 10804s
     0     0 -247.88806    0  523 -251.61441 -247.88806  1.48%     - 10804s
     0     0 -247.88806    0  491 -251.61441 -247.88806  1.48%     - 10805s
     0     0 -247.88806    0  502 -251.61441 -247.88806  1.48%     - 10805s
     0     0 -247.88806    0  517 -251.61441 -247.88806  1.48%     - 10805s
     0     0 -247.88806    0  508 -251.61441 -247.88806  1.48%     - 10805s
     0     0 -247.88806    0  405 -251.61441 -247.88806  1.48%     - 10808s
     0     0 -247.88806    0  409 -251.61441 -247.88806  1.48%     - 10809s
     0     0 -247.88806    0  402 -251.61441 -247.88806  1.48%     - 10810s
     0     0 -247.88806    0  404 -251.61441 -247.88806  1.48%     - 10810s
     0     0 -247.94797    0  414 -251.61441 -247.94797  1.46%     - 10812s
     0     0 -248.03785    0  273 -251.61441 -248.03785  1.42%     - 10812s
     0     0 -248.75316    0  511 -251.61441 -248.75316  1.14%     - 10812s
     0     0 -248.75316    0  508 -251.61441 -248.75316  1.14%     - 10813s
     0     0 -248.75316    0  483 -251.61441 -248.75316  1.14%     - 10814s
     0     0 -248.75316    0  212 -251.61441 -248.75316  1.14%     - 10815s

Explored 1 nodes (547194 simplex iterations) in 10816.04 seconds
Thread count was 1 (of 80 available processors)

Solution count 7: -251.614 -251.614 -251.614 ... -10653.9

Optimal solution found (tolerance 1.00e-04)
Best objective -2.516144136867e+02, best bound -2.516144136867e+02, gap 0.0000%
